# Solution for model GasLib-40
# Objective value = 59.8761149284977
loadshed[innode_1] 0
loadshed[innode_2] 0
loadshed[innode_3] 0
loadshed[innode_4] 0
loadshed[innode_5] 0
loadshed[innode_6] 0
loadshed[innode_7] 0
loadshed[innode_8] 0
loadshed[source_1] -9.1682727358996630e-02
loadshed[source_2] 6.7533679444398587e-02
loadshed[source_3] 4.0289539316830481e-01
loadshed[sink_1] 7.4909668567238119e-01
loadshed[sink_2] 0
loadshed[sink_3] 0
loadshed[sink_4] 0
loadshed[sink_5] 0
loadshed[sink_6] 0
loadshed[sink_7] 0
loadshed[sink_8] 0
loadshed[sink_9] 0
loadshed[sink_10] 0
loadshed[sink_11] 0
loadshed[sink_12] 1
loadshed[sink_13] 0
loadshed[sink_14] 0
loadshed[sink_15] 0
loadshed[sink_16] 0
loadshed[sink_17] 0
loadshed[sink_18] 0
loadshed[sink_19] 0
loadshed[sink_20] 0
loadshed[sink_21] 1
loadshed[sink_22] 0
loadshed[sink_23] 0
loadshed[sink_24] 9.1211798511473929e-01
loadshed[sink_25] 0
loadshed[sink_26] 0
loadshed[sink_27] 0
loadshed[sink_28] 0
loadshed[sink_29] 0
flow[source_1,sink_3] 1.7258442561338580e+02
flow[innode_1,sink_16] 1.6354166666666970e+01
flow[innode_6,sink_13] 2.0082733510266792e+01
flow[sink_13,sink_14] 3.7285668436001238e+00
flow[sink_14,sink_10] -1.2625599823066750e+01
flow[sink_25,sink_26] 1.8543638507150604e+02
flow[sink_26,sink_9] 1.6354166666669244e+01
flow[sink_9,sink_18] 0
flow[sink_26,sink_4] 1.5272805173817005e+02
flow[sink_4,sink_20] 3.4637396969999543e+01
flow[sink_18,sink_6] -1.6354166666667879e+01
flow[sink_25,innode_8] -1.3987609228004942e+02
flow[sink_6,sink_7] -5.3165814619734135e+01
flow[sink_6,sink_22] 20.4574812863996
flow[sink_7,sink_24] 1.4372371184360357e+00
flow[sink_22,sink_1] 4.1033146197329327e+00
flow[sink_24,sink_21] 0
flow[sink_21,sink_12] 0
flow[sink_7,sink_5] -7.0957218404836837e+01
flow[sink_5,sink_17] -8.7311385071503508e+01
flow[sink_17,sink_4] -1.0173648810150388e+02
flow[sink_17,sink_8] -1.9290636366662852e+00
flow[sink_3,sink_23] 16.3541666666697
flow[sink_8,sink_20] -1.8283230303332857e+01
flow[sink_25,sink_20] 0
flow[sink_25,sink_15] -8.1997192968389527e+01
flow[sink_15,sink_29] -5.5736044555693411e+01
flow[sink_29,sink_28] 1.6354166666667879e+01
flow[sink_29,sink_2] 5.8969481746029487e+01
flow[sink_2,sink_15] 4.2615315079362745e+01
flow[sink_29,innode_7] -1.4741385963505741e+02
flow[innode_4,sink_19] 9.4396433156413480e+01
flow[sink_19,innode_3] 3.0103532328328967e+01
flow[innode_4,innode_5] 0
flow[sink_27,innode_5] 0
flow[sink_27,sink_19] -1.6354166666679703e+01
flow[sink_10,sink_11] 3.2708333333333641e+01
flow[sink_10,innode_2] -3.1584567494738167e+01
flow[sink_10,innode_3] -3.0103532328328967e+01
flow[innode_6,sink_25] -2.0082733510266792e+01
flow[sink_11,innode_1] 1.6354166666666970e+01
flow[sink_19,innode_2] 3.1584567494738167e+01
flow[source_3,innode_4] 9.4396433156413480e+01
flow[source_2,innode_7] 1.4741385963505741e+02
flow[sink_3,innode_8] 1.3987609228004942e+02
pressure[innode_1] 7.5367933821114590e+01
pressure[innode_2] 7.7189009969351147e+01
pressure[innode_3] 77.1223491058653
pressure[innode_4] 81.01325
pressure[innode_5] 81.01325
pressure[innode_6] 7.5039847326948419e+01
pressure[innode_7] 81.01325
pressure[innode_8] 8.0436366194814724e+01
pressure[source_1] 81.01325
pressure[source_2] 81.01325
pressure[source_3] 81.01325
pressure[sink_1] 1.01325
pressure[sink_2] 7.5576743224170258e+01
pressure[sink_3] 8.0436366194814724e+01
pressure[sink_4] 4.2561431851277312e+01
pressure[sink_5] 3.2169331658728659e+01
pressure[sink_6] 1.9289395038172039e+00
pressure[sink_7] 2.6587794104245672e+00
pressure[sink_8] 3.8746187324333157e+01
pressure[sink_9] 6.1000832543169622e+01
pressure[sink_10] 7.5519635128718136e+01
pressure[sink_11] 7.5367933821114590e+01
pressure[sink_12] 1.01325
pressure[sink_13] 7.4929134573242862e+01
pressure[sink_14] 7.4922461985272562e+01
pressure[sink_15] 75.4376136127003
pressure[sink_16] 7.4346283986296910e+01
pressure[sink_17] 3.8673398741737643e+01
pressure[sink_18] 1.4922345610639645e+00
pressure[sink_19] 7.7189009969351147e+01
pressure[sink_20] 4.0020271354452184e+01
pressure[sink_21] 1.01325
pressure[sink_22] 1.2801532034963159e+00
pressure[sink_23] 8.0271648183154937e+01
pressure[sink_24] 1.01325
pressure[sink_25] 7.5039847326948419e+01
pressure[sink_26] 6.1979671627112040e+01
pressure[sink_27] 7.6837879972207645e+01
pressure[sink_28] 7.6775224474276683e+01
pressure[sink_29] 7.7070506747893859e+01
interdiction[source_1,sink_3] 0
interdiction[innode_1,sink_16] 0
interdiction[innode_6,sink_13] 0
interdiction[sink_13,sink_14] 0
interdiction[sink_14,sink_10] 0
interdiction[sink_25,sink_26] 0
interdiction[sink_26,sink_9] 0
interdiction[sink_9,sink_18] 1
interdiction[sink_26,sink_4] 0
interdiction[sink_4,sink_20] 0
interdiction[sink_18,sink_6] 0
interdiction[sink_25,innode_8] 0
interdiction[sink_6,sink_7] 0
interdiction[sink_6,sink_22] 0
interdiction[sink_7,sink_24] 0
interdiction[sink_22,sink_1] 0
interdiction[sink_24,sink_21] 0
interdiction[sink_21,sink_12] 0
interdiction[sink_7,sink_5] 0
interdiction[sink_5,sink_17] 0
interdiction[sink_17,sink_4] 0
interdiction[sink_17,sink_8] 0
interdiction[sink_3,sink_23] 0
interdiction[sink_8,sink_20] 0
interdiction[sink_25,sink_20] 1
interdiction[sink_25,sink_15] 0
interdiction[sink_15,sink_29] 0
interdiction[sink_29,sink_28] 0
interdiction[sink_29,sink_2] 0
interdiction[sink_2,sink_15] 0
interdiction[sink_29,innode_7] 0
interdiction[innode_4,sink_19] 0
interdiction[sink_19,innode_3] 0
interdiction[innode_4,innode_5] 0
interdiction[sink_27,innode_5] 1
interdiction[sink_27,sink_19] 0
interdiction[sink_10,sink_11] 0
interdiction[sink_10,innode_2] 0
interdiction[sink_10,innode_3] 0
interdiction[innode_6,sink_25] 0
interdiction[sink_11,innode_1] 0
interdiction[sink_19,innode_2] 0
interdiction[source_3,innode_4] 0
interdiction[source_2,innode_7] 0
interdiction[sink_3,innode_8] 0
WCcheckFlow[source_1,sink_3] 39
WCcheckFlow[innode_1,sink_16] 1
WCcheckFlow[innode_6,sink_13] 13
WCcheckFlow[sink_13,sink_14] 12
WCcheckFlow[sink_14,sink_10] 11
WCcheckFlow[sink_25,sink_26] 15
WCcheckFlow[sink_26,sink_9] 1
WCcheckFlow[sink_9,sink_18] 0
WCcheckFlow[sink_26,sink_4] 13
WCcheckFlow[sink_4,sink_20] 1
WCcheckFlow[sink_18,sink_6] -1
WCcheckFlow[sink_25,innode_8] -36
WCcheckFlow[sink_6,sink_7] -4
WCcheckFlow[sink_6,sink_22] 2
WCcheckFlow[sink_7,sink_24] 3
WCcheckFlow[sink_22,sink_1] 1
WCcheckFlow[sink_24,sink_21] 2
WCcheckFlow[sink_21,sink_12] 1
WCcheckFlow[sink_7,sink_5] -8
WCcheckFlow[sink_5,sink_17] -9
WCcheckFlow[sink_17,sink_4] -11
WCcheckFlow[sink_17,sink_8] 1
WCcheckFlow[sink_3,sink_23] 1
WCcheckFlow[sink_8,sink_20] 0
WCcheckFlow[sink_25,sink_20] 0
WCcheckFlow[sink_25,sink_15] 6
WCcheckFlow[sink_15,sink_29] 5
WCcheckFlow[sink_29,sink_28] 1
WCcheckFlow[sink_29,sink_2] 1
WCcheckFlow[sink_2,sink_15] 0
WCcheckFlow[sink_29,innode_7] 2
WCcheckFlow[innode_4,sink_19] -3
WCcheckFlow[sink_19,innode_3] -5
WCcheckFlow[innode_4,innode_5] 1
WCcheckFlow[sink_27,innode_5] 0
WCcheckFlow[sink_27,sink_19] -1
WCcheckFlow[sink_10,sink_11] 3
WCcheckFlow[sink_10,innode_2] 1
WCcheckFlow[sink_10,innode_3] 6
WCcheckFlow[innode_6,sink_25] -14
WCcheckFlow[sink_11,innode_1] 2
WCcheckFlow[sink_19,innode_2] 0
WCcheckFlow[source_3,innode_4] -1
WCcheckFlow[source_2,innode_7] -1
WCcheckFlow[sink_3,innode_8] 37
